c description: Random 3-CNF over 18 variables and 77 clauses
c generator: CNFgen (0.9.2)
c copyright: (C) 2012-2022 Massimo Lauria <massimo.lauria@uniroma1.it>
c url: https://massimolauria.net/cnfgen
c command line: cnfgen --output CNF_4.28/18_bit_77_596.cnf randkcnf 3 18 77
c
p cnf 18 77
-6 12 -14 0
8 11 16 0
11 -12 -13 0
-1 10 -11 0
-4 -6 -10 0
-1 -5 -9 0
7 -13 14 0
4 -11 -13 0
-5 -7 16 0
-6 11 13 0
4 -17 -18 0
5 -15 18 0
9 11 -12 0
-12 13 15 0
-4 -8 13 0
7 9 -15 0
8 -13 18 0
-3 9 16 0
1 4 16 0
-5 17 -18 0
1 -7 -13 0
3 8 14 0
6 8 -12 0
-7 9 -10 0
9 -10 -12 0
-3 11 -15 0
-4 5 -7 0
-8 -11 -18 0
7 9 -17 0
2 -15 16 0
-4 6 -10 0
-4 -8 -13 0
12 -17 18 0
1 4 -10 0
-5 -6 7 0
1 4 18 0
-4 -7 9 0
11 -16 -17 0
-13 14 17 0
7 -12 14 0
-14 17 18 0
5 -15 -16 0
-3 7 -15 0
-5 -6 13 0
3 5 -13 0
-5 -13 -14 0
-2 3 11 0
-10 -11 17 0
6 -14 -16 0
11 14 18 0
13 -14 -15 0
-5 6 18 0
-1 -3 -8 0
-5 10 -17 0
-3 9 -10 0
2 3 -4 0
3 6 -7 0
-7 -12 16 0
9 13 17 0
-4 -9 -16 0
-1 -5 16 0
-1 4 -7 0
-4 6 17 0
7 8 -17 0
1 5 -16 0
-3 4 11 0
-2 3 -14 0
2 15 -16 0
-1 5 -16 0
3 7 18 0
-1 -13 17 0
9 12 -15 0
3 -8 12 0
-9 14 -17 0
-2 -13 -15 0
3 12 -15 0
12 15 -16 0
